92474615743336 -1 0
1 2 0
135143998381777 3 2 0
405049160511182 -4 0
104717683185969 -5 0
446574898496445 -2 0
477811585554321 -6 0
1 -4 0
1 4 0
1 4 0
90471275776113 -4 0
491505330356725 -4 0
359586467861148 7 0
330025199859448 -4 0
1 -4 0
406755601189253 -4 0
392408969913278 -3 0
443727711998123 6 8 0
332350703336463 -4 0
386681201335689 -4 0
426040838926373 -8 0
297966788663794 -2 0
1 4 0
1 4 0
1 4 0
500410318699862 -4 0
1 4 0
1 -8 0
1394120200325071118 -5 -4 0
1 4 0
872363220209856124 2 -7 0
341116094046053 -4 0
1 4 0
1 4 0
1819403485328851977 -9 1 0
1 4 0
379969450793549 -4 0
1 -2 0
1 4 0
328621621329555 -4 0
390940601987270 4 3 0
339292552336768 -8 0
1214643963959545607 -6 -4 0
323836726112071 -2 0
1 -2 0
358873390748838 -3 5 0
254985352999986 -4 0
3925963016232033322 -3 4 0
170570681787355 -6 0
